proyfinal/src/viki/013/experimentInOfficeAgust.take6.output/64a25206-1738-4f91-a57b-ccd59c1a3a02.als.dat
{'cnf.clauses': '118081',
 'cnf.totvars': '69608',
 'conflict literals': '28',
 'conflicts': '16',
 'decisions': '7274',
 'memused.mb': '16.09',
 'outcome': 'UNSAT',
 'propagations': '31526',
 'restarts': '1',
 'solver.msecs': 29,
 'task.msecs': 73}
