proyfinal/src/viki/013/experimentInOfficeAgust.take6.output/64a25206-1738-4f91-a57b-ccd59c1a3a02.als.out
Reading from standard input... Use '--help' for help.
============================[ Problem Statistics ]=============================
|                                                                             |
|  Number of variables:         69608                                         |
|  Number of clauses:          118081                                         |
|  Parse time:                   0.02 s                                       |
|                                                                             |
============================[ Search Statistics ]==============================
| Conflicts |          ORIGINAL         |          LEARNT          | Progress |
|           |    Vars  Clauses Literals |    Limit  Clauses Lit/Cl |          |
===============================================================================
===============================================================================
restarts              : 1
conflicts             : 16             (541 /sec)
decisions             : 7274           (0.00 % random) (246151 /sec)
propagations          : 31526          (1066834 /sec)
conflict literals     : 28             (0.00 % deleted)
Memory used           : 16.09 MB
CPU time              : 0.029551 s

UNSATISFIABLE
